 &input
   fildyn='Si1.dyn', 
   zasr='simple', 
   flfrc='Si1444.fc'
 /
