 &control
    calculation='scf'
    restart_mode='from_scratch',
    tstress = .true.
    tprnfor = .true.
    prefix='Si1',
    pseudo_dir = '/home/planck/kedar/softwares/SSSP_precision_pseudos/',
    outdir='./tmp/'
 /
 &system
    ibrav=  2, celldm(1) =10.32955, nat=  2, ntyp= 1,
    ecutwfc =16.0
 /
 &electrons
    conv_thr =  1.0d-8
    mixing_beta = 0.7
 /
ATOMIC_SPECIES
 Si  28.086  Si.pbe-n-rrkjus_psl.1.0.0.UPF
ATOMIC_POSITIONS (alat)
 Si 0.00 0.00 0.00
 Si 0.25 0.25 0.25
K_POINTS automatic
 4 4 4  1 1 1
